experiment/data/lkh-res/Vrp-Set-M-n200/Vrp-Set-M-n200-lkh/0.lkh1.tour
NAME : 0.132186.tour
COMMENT : Length = 132186
COMMENT : Found by LKH-3 [Keld Helsgaun] Tue Apr  9 02:34:49 2024
TYPE : TOUR
DIMENSION : 215
TOUR_SECTION
1
118
98
38
101
193
120
45
39
141
87
142
192
94
203
71
91
127
64
182
33
132
161
129
31
123
2
177
112
210
168
128
191
183
49
83
195
107
154
53
214
19
84
115
9
175
126
46
18
114
17
92
194
99
215
41
74
76
24
68
171
26
56
166
131
55
180
150
209
185
69
151
164
25
135
178
110
196
139
155
213
14
138
88
145
173
43
143
15
44
16
58
179
3
59
208
103
158
186
80
130
159
4
78
117
197
77
29
205
51
34
82
10
121
165
35
79
170
30
122
81
13
206
106
199
198
57
187
40
188
140
5
156
111
27
211
89
149
63
160
109
190
11
32
163
133
28
202
147
8
124
20
108
176
12
65
50
144
37
48
169
125
47
200
212
70
102
21
189
67
66
137
36
136
72
162
104
52
201
54
181
22
73
75
172
134
23
42
146
116
153
207
90
167
61
119
6
85
174
62
86
105
100
97
204
113
184
95
96
152
93
60
7
148
157
-1
EOF
